; benchmark generated from python API
(set-info :status unknown)
(declare-datatypes ((RealState 0)) (((RMk1 (rval1 Real)) (RMk2 (rval2 Real)))))
 (declare-fun yuscore2dollarskuscore77 () Real)
(declare-fun t30uscore0dollarskuscore1 () Real)
(declare-fun xuscore2dollarskuscore67 () Real)
(declare-fun stuscore2dollarskuscore77 () Real)
(assert
 (let (($x139 (exists ((ts30uscore1_st RealState) (val!175 Real) )(let (($x248 (>= (+ (* (- 2.0) t30uscore0dollarskuscore1) yuscore2dollarskuscore77) 1.0)))
 (let (($x24 (<= yuscore2dollarskuscore77 (+ 10.0 xuscore2dollarskuscore67))))
 (let (($x81 (>= yuscore2dollarskuscore77 (- 5.0 (* 2.0 xuscore2dollarskuscore67)))))
 (let (($x151 (<= yuscore2dollarskuscore77 12.0)))
 (let (($x194 (>= yuscore2dollarskuscore77 1.0)))
 (let (($x130 (= stuscore2dollarskuscore77 3.0)))
 (let (($x55 (> xuscore2dollarskuscore67 2.0)))
 (let (($x89 (>= t30uscore0dollarskuscore1 0.0)))
 (let (($x58 (and (<= 0.0 (rval2 ts30uscore1_st)) (<= (rval2 ts30uscore1_st) t30uscore0dollarskuscore1))))
 (let (($x8 (and (=> $x58 (<= (+ (rval2 ts30uscore1_st) xuscore2dollarskuscore67) 2.0)) $x89)))
 (let (($x197 (and (and (and (and (and (and $x8 $x55) $x130) $x194) $x151) $x81) $x24)))
 (let (($x94 (not (= ts30uscore1_st (RMk1 val!175)))))
 (and $x94 (=> $x197 $x248)))))))))))))))
 ))
 (not $x139)))
(check-sat)
